(set-info :smt-lib-version 2.6)
(set-logic QF_SLIA)
(set-info :source |
Generated by: Denghang Hu
Generated on: 2023-04-14
Application: Evaluate string solvers
Target solver: Ostrich, Z3str3, CVC5
Description: The instance consists of:
(1) a regular membership predicate from the real world
(2) a regular membership predicate to sanitize danger letters in javascript such as <,>,&,",'
(3) a lower bound for string length
|)
(set-info :license "https://creativecommons.org/licenses/by/4.0/")
(set-info :category "industrial")
(set-info :status unknown)
        ;test regex VAR=`echo $X | grep -e "^[a-bA-Z][a-bA-Z0-9]*(_){1}[0-9]*(_){1}[a-bA-Z0-9]*(_){1}[0-9](\.){1}(raw)"
(declare-const X String)
(assert (str.in_re X (re.union (re.++ (re.++ (str.to_re "V") (re.++ (str.to_re "A") (re.++ (str.to_re "R") (re.++ (str.to_re "=") (re.++ (str.to_re "`") (re.++ (str.to_re "e") (re.++ (str.to_re "c") (re.++ (str.to_re "h") (re.++ (str.to_re "o") (str.to_re " ")))))))))) (re.++ (str.to_re "") (re.++ (str.to_re "X") (str.to_re " ")))) (re.++ (re.++ (str.to_re " ") (re.++ (str.to_re "g") (re.++ (str.to_re "r") (re.++ (str.to_re "e") (re.++ (str.to_re "p") (re.++ (str.to_re " ") (re.++ (str.to_re "-") (re.++ (str.to_re "e") (re.++ (str.to_re " ") (str.to_re "\u{22}")))))))))) (re.++ (str.to_re "") (re.++ (re.union (re.range "a" "b") (re.range "A" "Z")) (re.++ (re.* (re.union (re.range "a" "b") (re.union (re.range "A" "Z") (re.range "0" "9")))) (re.++ ((_ re.loop 1 1) (str.to_re "_")) (re.++ (re.* (re.range "0" "9")) (re.++ ((_ re.loop 1 1) (str.to_re "_")) (re.++ (re.* (re.union (re.range "a" "b") (re.union (re.range "A" "Z") (re.range "0" "9")))) (re.++ ((_ re.loop 1 1) (str.to_re "_")) (re.++ (re.range "0" "9") (re.++ ((_ re.loop 1 1) (str.to_re ".")) (re.++ (re.++ (str.to_re "r") (re.++ (str.to_re "a") (str.to_re "w"))) (str.to_re "\u{22}"))))))))))))))))
; sanitize danger characters:  < > ' " &
(assert (not (str.in_re X (re.++ re.all (re.union (str.to_re "\u{3c}") (str.to_re "\u{3e}") (str.to_re "\u{27}") (str.to_re "\u{22}") (str.to_re "\u{26}")) re.all))))
(assert (< 20 (str.len X)))
(check-sat)
(exit)
